23
12
4 16 9 1 21 11 19 7 22 3 15 13
6 4 5 8 13
4 0 9 10 12
21 4 8 6 7 18 1 3 12 9 15 2 10
1 9 19 18 0
19 15 8 10 0 3 7 2 22
10 11 3 7 21 14 22 6 17
2 18 3 9 16 20 15 13 14
10 21 4 17 5 8 15 11 19 12 16 6 1 22 14 0 18
0 17 9 18 5 13 2 1 19 3 7 12 22 14 16 8 11 21 4 20
4 2 11 19 1 0 8 22 21 17 10 7
19 22 5 20 3 7 2 15 11 8 10 21 17 18 0 1 13 4 12 9
